set N :=  1 2 3 4 5 6 7 8 9 10 11 12 13 14 15 16 17 18 19 20 21 22 23 24 25 26 27 28 29 30 31 32 33 34 35 36 37 38 39 40 41 42 43 44 45 46 47 48 49 50 51 52 53 54 55 56 57 58 59 60 61 62 63 64 65 66 67 68 69 70 ;

set M :=  1 2 3 4 5 6 7 8 9 10 11 12 13 ;

set T :=  1 2 3 4 5 6 7 8 9 10 11 12 13 14 15 16 17 18 19 20 21 22 23 24 ;

param arrival := 
    1 10
    2 7
    3 8
    4 11
    5 10
    6 9
    7 4
    8 7
    9 10
    10 8
    11 7
    12 8
    13 4
    14 7
    15 7
    16 9
    17 8
    18 10
    19 7
    20 7
    21 8
    22 8
    23 12
    24 4
    25 6
    26 9
    27 10
    28 6
    29 7
    30 8
    31 11
    32 10
    33 8
    34 7
    35 7
    36 7
    37 11
    38 9
    39 11
    40 10
    41 13
    42 10
    43 6
    44 11
    45 8
    46 7
    47 5
    48 5
    49 12
    50 12
    51 5
    52 10
    53 10
    54 12
    55 11
    56 6
    57 9
    58 12
    59 6
    60 13
    61 6
    62 10
    63 9
    64 11
    65 12
    66 9
    67 10
    68 7
    69 12
    70 11
 ;

param depart := 
    1 18
    2 21
    3 20
    4 20
    5 21
    6 21
    7 20
    8 21
    9 20
    10 24
    11 18
    12 18
    13 22
    14 20
    15 20
    16 17
    17 17
    18 20
    19 21
    20 20
    21 19
    22 20
    23 20
    24 20
    25 20
    26 21
    27 16
    28 21
    29 18
    30 18
    31 17
    32 18
    33 18
    34 18
    35 18
    36 18
    37 19
    38 19
    39 19
    40 19
    41 19
    42 20
    43 18
    44 20
    45 21
    46 21
    47 18
    48 17
    49 18
    50 20
    51 19
    52 19
    53 21
    54 18
    55 21
    56 19
    57 22
    58 22
    59 20
    60 17
    61 22
    62 19
    63 17
    64 18
    65 22
    66 21
    67 18
    68 20
    69 19
    70 20
 ;

param demand := 
    1 20
    2 21
    3 17
    4 9
    5 16
    6 20
    7 16
    8 16
    9 51
    10 16
    11 17
    12 15
    13 32
    14 16
    15 16
    16 10
    17 16
    18 23
    19 16
    20 16
    21 16
    22 16
    23 22
    24 22
    25 10
    26 24
    27 38
    28 8
    29 16
    30 5
    31 22
    32 16
    33 15
    34 22
    35 3
    36 34
    37 12
    38 32
    39 15
    40 27
    41 24
    42 9
    43 16
    44 14
    45 19
    46 7
    47 16
    48 28
    49 9
    50 22
    51 16
    52 11
    53 17
    54 5
    55 37
    56 11
    57 24
    58 27
    59 19
    60 16
    61 19
    62 24
    63 7
    64 10
    65 22
    66 20
    67 24
    68 13
    69 9
    70 13
 ;

param installed_chargers := 
 1 4
 2 4
 3 8
 4 8
 5 8
 6 8
 7 8
 8 8
 9 19
 10 19
 11 19
 12 19
 13 19
 ;

param installed_cost := 
 1 1000
 2 1000
 3 1500
 4 1500
 5 1500
 6 1500
 7 1500
 8 1500
 9 2200
 10 2200
 11 2200
 12 2200
 13 2200
 ;

param POWER := 
    1 1 4
    2 1 4
    3 1 4
    4 1 4
    5 1 4
    6 1 4
    7 1 4
    8 1 4
    9 1 4
    10 1 4
    11 1 4
    12 1 4
    13 1 4
    14 1 4
    15 1 4
    16 1 4
    17 1 4
    18 1 4
    19 1 4
    20 1 4
    21 1 4
    22 1 4
    23 1 4
    24 1 4
    25 1 4
    26 1 4
    27 1 4
    28 1 4
    29 1 4
    30 1 4
    31 1 4
    32 1 4
    33 1 4
    34 1 4
    35 1 4
    36 1 4
    37 1 4
    38 1 4
    39 1 4
    40 1 4
    41 1 4
    42 1 4
    43 1 4
    44 1 4
    45 1 4
    46 1 4
    47 1 4
    48 1 4
    49 1 4
    50 1 4
    51 1 4
    52 1 4
    53 1 4
    54 1 4
    55 1 4
    56 1 4
    57 1 4
    58 1 4
    59 1 4
    60 1 4
    61 1 4
    62 1 4
    63 1 4
    64 1 4
    65 1 4
    66 1 4
    67 1 4
    68 1 4
    69 1 4
    70 1 4
    1 2 4
    2 2 4
    3 2 4
    4 2 4
    5 2 4
    6 2 4
    7 2 4
    8 2 4
    9 2 4
    10 2 4
    11 2 4
    12 2 4
    13 2 4
    14 2 4
    15 2 4
    16 2 4
    17 2 4
    18 2 4
    19 2 4
    20 2 4
    21 2 4
    22 2 4
    23 2 4
    24 2 4
    25 2 4
    26 2 4
    27 2 4
    28 2 4
    29 2 4
    30 2 4
    31 2 4
    32 2 4
    33 2 4
    34 2 4
    35 2 4
    36 2 4
    37 2 4
    38 2 4
    39 2 4
    40 2 4
    41 2 4
    42 2 4
    43 2 4
    44 2 4
    45 2 4
    46 2 4
    47 2 4
    48 2 4
    49 2 4
    50 2 4
    51 2 4
    52 2 4
    53 2 4
    54 2 4
    55 2 4
    56 2 4
    57 2 4
    58 2 4
    59 2 4
    60 2 4
    61 2 4
    62 2 4
    63 2 4
    64 2 4
    65 2 4
    66 2 4
    67 2 4
    68 2 4
    69 2 4
    70 2 4
    1 3 8
    2 3 8
    3 3 8
    4 3 8
    5 3 8
    6 3 8
    7 3 8
    8 3 8
    9 3 8
    10 3 8
    11 3 8
    12 3 8
    13 3 8
    14 3 8
    15 3 8
    16 3 8
    17 3 8
    18 3 8
    19 3 8
    20 3 8
    21 3 8
    22 3 8
    23 3 8
    24 3 8
    25 3 8
    26 3 8
    27 3 8
    28 3 8
    29 3 8
    30 3 8
    31 3 8
    32 3 8
    33 3 8
    34 3 8
    35 3 8
    36 3 8
    37 3 8
    38 3 8
    39 3 8
    40 3 8
    41 3 8
    42 3 8
    43 3 8
    44 3 8
    45 3 8
    46 3 8
    47 3 8
    48 3 8
    49 3 8
    50 3 8
    51 3 8
    52 3 8
    53 3 8
    54 3 8
    55 3 8
    56 3 8
    57 3 8
    58 3 8
    59 3 8
    60 3 8
    61 3 8
    62 3 8
    63 3 8
    64 3 8
    65 3 8
    66 3 8
    67 3 8
    68 3 8
    69 3 8
    70 3 8
    1 4 8
    2 4 8
    3 4 8
    4 4 8
    5 4 8
    6 4 8
    7 4 8
    8 4 8
    9 4 8
    10 4 8
    11 4 8
    12 4 8
    13 4 8
    14 4 8
    15 4 8
    16 4 8
    17 4 8
    18 4 8
    19 4 8
    20 4 8
    21 4 8
    22 4 8
    23 4 8
    24 4 8
    25 4 8
    26 4 8
    27 4 8
    28 4 8
    29 4 8
    30 4 8
    31 4 8
    32 4 8
    33 4 8
    34 4 8
    35 4 8
    36 4 8
    37 4 8
    38 4 8
    39 4 8
    40 4 8
    41 4 8
    42 4 8
    43 4 8
    44 4 8
    45 4 8
    46 4 8
    47 4 8
    48 4 8
    49 4 8
    50 4 8
    51 4 8
    52 4 8
    53 4 8
    54 4 8
    55 4 8
    56 4 8
    57 4 8
    58 4 8
    59 4 8
    60 4 8
    61 4 8
    62 4 8
    63 4 8
    64 4 8
    65 4 8
    66 4 8
    67 4 8
    68 4 8
    69 4 8
    70 4 8
    1 5 8
    2 5 8
    3 5 8
    4 5 8
    5 5 8
    6 5 8
    7 5 8
    8 5 8
    9 5 8
    10 5 8
    11 5 8
    12 5 8
    13 5 8
    14 5 8
    15 5 8
    16 5 8
    17 5 8
    18 5 8
    19 5 8
    20 5 8
    21 5 8
    22 5 8
    23 5 8
    24 5 8
    25 5 8
    26 5 8
    27 5 8
    28 5 8
    29 5 8
    30 5 8
    31 5 8
    32 5 8
    33 5 8
    34 5 8
    35 5 8
    36 5 8
    37 5 8
    38 5 8
    39 5 8
    40 5 8
    41 5 8
    42 5 8
    43 5 8
    44 5 8
    45 5 8
    46 5 8
    47 5 8
    48 5 8
    49 5 8
    50 5 8
    51 5 8
    52 5 8
    53 5 8
    54 5 8
    55 5 8
    56 5 8
    57 5 8
    58 5 8
    59 5 8
    60 5 8
    61 5 8
    62 5 8
    63 5 8
    64 5 8
    65 5 8
    66 5 8
    67 5 8
    68 5 8
    69 5 8
    70 5 8
    1 6 8
    2 6 8
    3 6 8
    4 6 8
    5 6 8
    6 6 8
    7 6 8
    8 6 8
    9 6 8
    10 6 8
    11 6 8
    12 6 8
    13 6 8
    14 6 8
    15 6 8
    16 6 8
    17 6 8
    18 6 8
    19 6 8
    20 6 8
    21 6 8
    22 6 8
    23 6 8
    24 6 8
    25 6 8
    26 6 8
    27 6 8
    28 6 8
    29 6 8
    30 6 8
    31 6 8
    32 6 8
    33 6 8
    34 6 8
    35 6 8
    36 6 8
    37 6 8
    38 6 8
    39 6 8
    40 6 8
    41 6 8
    42 6 8
    43 6 8
    44 6 8
    45 6 8
    46 6 8
    47 6 8
    48 6 8
    49 6 8
    50 6 8
    51 6 8
    52 6 8
    53 6 8
    54 6 8
    55 6 8
    56 6 8
    57 6 8
    58 6 8
    59 6 8
    60 6 8
    61 6 8
    62 6 8
    63 6 8
    64 6 8
    65 6 8
    66 6 8
    67 6 8
    68 6 8
    69 6 8
    70 6 8
    1 7 8
    2 7 8
    3 7 8
    4 7 8
    5 7 8
    6 7 8
    7 7 8
    8 7 8
    9 7 8
    10 7 8
    11 7 8
    12 7 8
    13 7 8
    14 7 8
    15 7 8
    16 7 8
    17 7 8
    18 7 8
    19 7 8
    20 7 8
    21 7 8
    22 7 8
    23 7 8
    24 7 8
    25 7 8
    26 7 8
    27 7 8
    28 7 8
    29 7 8
    30 7 8
    31 7 8
    32 7 8
    33 7 8
    34 7 8
    35 7 8
    36 7 8
    37 7 8
    38 7 8
    39 7 8
    40 7 8
    41 7 8
    42 7 8
    43 7 8
    44 7 8
    45 7 8
    46 7 8
    47 7 8
    48 7 8
    49 7 8
    50 7 8
    51 7 8
    52 7 8
    53 7 8
    54 7 8
    55 7 8
    56 7 8
    57 7 8
    58 7 8
    59 7 8
    60 7 8
    61 7 8
    62 7 8
    63 7 8
    64 7 8
    65 7 8
    66 7 8
    67 7 8
    68 7 8
    69 7 8
    70 7 8
    1 8 8
    2 8 8
    3 8 8
    4 8 8
    5 8 8
    6 8 8
    7 8 8
    8 8 8
    9 8 8
    10 8 8
    11 8 8
    12 8 8
    13 8 8
    14 8 8
    15 8 8
    16 8 8
    17 8 8
    18 8 8
    19 8 8
    20 8 8
    21 8 8
    22 8 8
    23 8 8
    24 8 8
    25 8 8
    26 8 8
    27 8 8
    28 8 8
    29 8 8
    30 8 8
    31 8 8
    32 8 8
    33 8 8
    34 8 8
    35 8 8
    36 8 8
    37 8 8
    38 8 8
    39 8 8
    40 8 8
    41 8 8
    42 8 8
    43 8 8
    44 8 8
    45 8 8
    46 8 8
    47 8 8
    48 8 8
    49 8 8
    50 8 8
    51 8 8
    52 8 8
    53 8 8
    54 8 8
    55 8 8
    56 8 8
    57 8 8
    58 8 8
    59 8 8
    60 8 8
    61 8 8
    62 8 8
    63 8 8
    64 8 8
    65 8 8
    66 8 8
    67 8 8
    68 8 8
    69 8 8
    70 8 8
    1 9 19
    2 9 19
    3 9 19
    4 9 19
    5 9 8
    6 9 19
    7 9 8
    8 9 8
    9 9 19
    10 9 8
    11 9 19
    12 9 19
    13 9 19
    14 9 8
    15 9 8
    16 9 19
    17 9 8
    18 9 19
    19 9 8
    20 9 8
    21 9 8
    22 9 8
    23 9 19
    24 9 19
    25 9 19
    26 9 19
    27 9 19
    28 9 8
    29 9 8
    30 9 8
    31 9 19
    32 9 8
    33 9 19
    34 9 19
    35 9 19
    36 9 19
    37 9 19
    38 9 19
    39 9 8
    40 9 19
    41 9 19
    42 9 19
    43 9 8
    44 9 19
    45 9 19
    46 9 8
    47 9 8
    48 9 19
    49 9 8
    50 9 19
    51 9 8
    52 9 19
    53 9 19
    54 9 8
    55 9 19
    56 9 19
    57 9 19
    58 9 19
    59 9 19
    60 9 8
    61 9 19
    62 9 19
    63 9 19
    64 9 19
    65 9 19
    66 9 19
    67 9 19
    68 9 8
    69 9 8
    70 9 19
    1 10 19
    2 10 19
    3 10 19
    4 10 19
    5 10 8
    6 10 19
    7 10 8
    8 10 8
    9 10 19
    10 10 8
    11 10 19
    12 10 19
    13 10 19
    14 10 8
    15 10 8
    16 10 19
    17 10 8
    18 10 19
    19 10 8
    20 10 8
    21 10 8
    22 10 8
    23 10 19
    24 10 19
    25 10 19
    26 10 19
    27 10 19
    28 10 8
    29 10 8
    30 10 8
    31 10 19
    32 10 8
    33 10 19
    34 10 19
    35 10 19
    36 10 19
    37 10 19
    38 10 19
    39 10 8
    40 10 19
    41 10 19
    42 10 19
    43 10 8
    44 10 19
    45 10 19
    46 10 8
    47 10 8
    48 10 19
    49 10 8
    50 10 19
    51 10 8
    52 10 19
    53 10 19
    54 10 8
    55 10 19
    56 10 19
    57 10 19
    58 10 19
    59 10 19
    60 10 8
    61 10 19
    62 10 19
    63 10 19
    64 10 19
    65 10 19
    66 10 19
    67 10 19
    68 10 8
    69 10 8
    70 10 19
    1 11 19
    2 11 19
    3 11 19
    4 11 19
    5 11 8
    6 11 19
    7 11 8
    8 11 8
    9 11 19
    10 11 8
    11 11 19
    12 11 19
    13 11 19
    14 11 8
    15 11 8
    16 11 19
    17 11 8
    18 11 19
    19 11 8
    20 11 8
    21 11 8
    22 11 8
    23 11 19
    24 11 19
    25 11 19
    26 11 19
    27 11 19
    28 11 8
    29 11 8
    30 11 8
    31 11 19
    32 11 8
    33 11 19
    34 11 19
    35 11 19
    36 11 19
    37 11 19
    38 11 19
    39 11 8
    40 11 19
    41 11 19
    42 11 19
    43 11 8
    44 11 19
    45 11 19
    46 11 8
    47 11 8
    48 11 19
    49 11 8
    50 11 19
    51 11 8
    52 11 19
    53 11 19
    54 11 8
    55 11 19
    56 11 19
    57 11 19
    58 11 19
    59 11 19
    60 11 8
    61 11 19
    62 11 19
    63 11 19
    64 11 19
    65 11 19
    66 11 19
    67 11 19
    68 11 8
    69 11 8
    70 11 19
    1 12 19
    2 12 19
    3 12 19
    4 12 19
    5 12 8
    6 12 19
    7 12 8
    8 12 8
    9 12 19
    10 12 8
    11 12 19
    12 12 19
    13 12 19
    14 12 8
    15 12 8
    16 12 19
    17 12 8
    18 12 19
    19 12 8
    20 12 8
    21 12 8
    22 12 8
    23 12 19
    24 12 19
    25 12 19
    26 12 19
    27 12 19
    28 12 8
    29 12 8
    30 12 8
    31 12 19
    32 12 8
    33 12 19
    34 12 19
    35 12 19
    36 12 19
    37 12 19
    38 12 19
    39 12 8
    40 12 19
    41 12 19
    42 12 19
    43 12 8
    44 12 19
    45 12 19
    46 12 8
    47 12 8
    48 12 19
    49 12 8
    50 12 19
    51 12 8
    52 12 19
    53 12 19
    54 12 8
    55 12 19
    56 12 19
    57 12 19
    58 12 19
    59 12 19
    60 12 8
    61 12 19
    62 12 19
    63 12 19
    64 12 19
    65 12 19
    66 12 19
    67 12 19
    68 12 8
    69 12 8
    70 12 19
    1 13 19
    2 13 19
    3 13 19
    4 13 19
    5 13 8
    6 13 19
    7 13 8
    8 13 8
    9 13 19
    10 13 8
    11 13 19
    12 13 19
    13 13 19
    14 13 8
    15 13 8
    16 13 19
    17 13 8
    18 13 19
    19 13 8
    20 13 8
    21 13 8
    22 13 8
    23 13 19
    24 13 19
    25 13 19
    26 13 19
    27 13 19
    28 13 8
    29 13 8
    30 13 8
    31 13 19
    32 13 8
    33 13 19
    34 13 19
    35 13 19
    36 13 19
    37 13 19
    38 13 19
    39 13 8
    40 13 19
    41 13 19
    42 13 19
    43 13 8
    44 13 19
    45 13 19
    46 13 8
    47 13 8
    48 13 19
    49 13 8
    50 13 19
    51 13 8
    52 13 19
    53 13 19
    54 13 8
    55 13 19
    56 13 19
    57 13 19
    58 13 19
    59 13 19
    60 13 8
    61 13 19
    62 13 19
    63 13 19
    64 13 19
    65 13 19
    66 13 19
    67 13 19
    68 13 8
    69 13 8
    70 13 19
 ;

